experiment/data/hgs-res/Vrp-Set-P-n60/Vrp-Set-P-n60-hgs/1.hgs1.log
=========== Algorithm Parameters =================
---- nbGranular        is set to 20
---- mu                is set to 25
---- lambda            is set to 40
---- nbElite           is set to 4
---- nbClose           is set to 5
---- targetFeasible    is set to 0.2
---- seed              is set to 1234
---- nbIter            is set to 20000
---- timeLimit         is set to 0
---- useSwapStar       is set to 1
==================================================
----- READING INSTANCE: baseline_results/cvrp_hgs/Vrp-Set-P-n60/Vrp-Set-P-n60-hgs/1.hgs1.vrp
----- FLEET SIZE WAS NOT SPECIFIED: DEFAULT INITIALIZATION TO 22 VEHICLES
----- INSTANCE SUCCESSFULLY LOADED WITH 59 CLIENTS AND 22 VEHICLES
----- BUILDING INITIAL POPULATION
----- STARTING GENETIC ALGORITHM
It      0      2 | T(s) 0.07 | Feas 50 978.73 990.72 | Inf 54 973.47 984.32 | Div 0.50 0.48 | Feas 0.06 1.00 | Pen 2.57 0.85
It    500    442 | T(s) 0.32 | Feas 53 971.58 977.48 | Inf 38 970.40 975.77 | Div 0.38 0.42 | Feas 0.23 1.00 | Pen 2.57 0.38
It   1000    942 | T(s) 0.51 | Feas 56 971.58 976.81 | Inf 36 970.40 974.34 | Div 0.36 0.39 | Feas 0.21 1.00 | Pen 2.57 0.17
It   1500   1442 | T(s) 0.70 | Feas 63 971.58 975.56 | Inf 62 970.61 972.95 | Div 0.31 0.27 | Feas 0.38 1.00 | Pen 2.62 0.10
It   2000   1942 | T(s) 0.89 | Feas 38 971.58 976.87 | Inf 51 970.82 974.36 | Div 0.41 0.35 | Feas 0.16 1.00 | Pen 2.67 0.10
It   2500   2442 | T(s) 1.08 | Feas 56 971.58 975.58 | Inf 46 970.82 974.56 | Div 0.32 0.38 | Feas 0.16 1.00 | Pen 2.67 0.10
It   3000   2942 | T(s) 1.27 | Feas 30 971.58 977.73 | Inf 30 971.01 976.47 | Div 0.45 0.45 | Feas 0.16 1.00 | Pen 2.73 0.10
It   3500   3442 | T(s) 1.46 | Feas 51 971.58 975.77 | Inf 52 971.17 973.80 | Div 0.33 0.31 | Feas 0.15 1.00 | Pen 2.78 0.10
It   4000   3942 | T(s) 1.64 | Feas 51 971.58 976.96 | Inf 40 971.17 974.30 | Div 0.37 0.36 | Feas 0.17 1.00 | Pen 2.78 0.10
It   4500   4442 | T(s) 1.83 | Feas 64 971.58 975.51 | Inf 25 971.17 978.01 | Div 0.29 0.50 | Feas 0.20 1.00 | Pen 2.78 0.10
It   5000   4942 | T(s) 2.03 | Feas 31 971.58 976.95 | Inf 62 971.34 973.88 | Div 0.42 0.27 | Feas 0.19 1.00 | Pen 2.84 0.10
It   5500   5442 | T(s) 2.22 | Feas 65 971.58 975.39 | Inf 51 971.34 974.00 | Div 0.32 0.33 | Feas 0.18 1.00 | Pen 2.84 0.10
It   6000   5942 | T(s) 2.41 | Feas 34 971.58 977.33 | Inf 27 971.51 979.12 | Div 0.43 0.50 | Feas 0.22 1.00 | Pen 2.89 0.10
It   6500   6442 | T(s) 2.60 | Feas 47 971.58 976.27 | Inf 62 969.96 971.67 | Div 0.36 0.23 | Feas 0.16 1.00 | Pen 2.46 0.10
It   7000   6942 | T(s) 2.79 | Feas 34 971.58 976.75 | Inf 42 970.16 972.22 | Div 0.39 0.29 | Feas 0.17 1.00 | Pen 2.51 0.10
It   7500   7442 | T(s) 2.99 | Feas 47 971.58 976.53 | Inf 29 970.36 975.49 | Div 0.37 0.43 | Feas 0.24 1.00 | Pen 2.56 0.10
It   8000   7942 | T(s) 3.17 | Feas 53 971.58 975.90 | Inf 53 970.56 972.90 | Div 0.32 0.28 | Feas 0.16 1.00 | Pen 2.61 0.10
It   8500   8442 | T(s) 3.36 | Feas 31 971.58 976.01 | Inf 39 970.77 974.91 | Div 0.40 0.41 | Feas 0.33 1.00 | Pen 2.66 0.10
It   9000   8942 | T(s) 3.56 | Feas 29 971.58 977.60 | Inf 54 971.14 973.95 | Div 0.46 0.31 | Feas 0.45 1.00 | Pen 2.77 0.10
It   9500   9442 | T(s) 3.75 | Feas 43 971.58 976.56 | Inf 25 971.31 977.69 | Div 0.39 0.48 | Feas 0.20 1.00 | Pen 2.82 0.10
It  10000   9942 | T(s) 3.94 | Feas 58 971.58 975.44 | Inf 34 971.47 976.28 | Div 0.31 0.44 | Feas 0.46 1.00 | Pen 2.88 0.10
It  10500  10442 | T(s) 4.13 | Feas 39 971.58 977.08 | Inf 58 971.82 974.41 | Div 0.41 0.31 | Feas 0.15 1.00 | Pen 3.00 0.10
It  11000  10942 | T(s) 4.32 | Feas 45 971.58 975.82 | Inf 31 970.52 974.55 | Div 0.35 0.41 | Feas 0.16 1.00 | Pen 2.60 0.10
It  11500  11442 | T(s) 4.51 | Feas 63 971.58 975.57 | Inf 26 970.52 977.47 | Div 0.31 0.49 | Feas 0.17 1.00 | Pen 2.60 0.10
It  12000  11942 | T(s) 4.71 | Feas 31 971.58 977.31 | Inf 64 970.73 973.02 | Div 0.43 0.28 | Feas 0.20 1.00 | Pen 2.65 0.10
It  12500  12442 | T(s) 4.90 | Feas 47 971.58 975.98 | Inf 39 971.11 974.93 | Div 0.37 0.39 | Feas 0.23 1.00 | Pen 2.76 0.10
It  13000  12942 | T(s) 5.09 | Feas 64 971.58 975.28 | Inf 40 972.19 976.94 | Div 0.31 0.41 | Feas 0.10 1.00 | Pen 3.31 0.10
It  13500  13442 | T(s) 5.28 | Feas 30 971.58 978.03 | Inf 56 971.27 974.20 | Div 0.47 0.35 | Feas 0.18 1.00 | Pen 2.81 0.10
It  14000  13942 | T(s) 5.47 | Feas 60 971.58 976.47 | Inf 62 971.44 974.29 | Div 0.35 0.31 | Feas 0.22 1.00 | Pen 2.87 0.10
It  14500  14442 | T(s) 5.67 | Feas 28 971.58 977.09 | Inf 52 969.88 972.67 | Div 0.45 0.29 | Feas 0.18 1.00 | Pen 2.44 0.10
It  15000  14942 | T(s) 5.85 | Feas 46 971.58 975.72 | Inf 35 971.79 975.13 | Div 0.36 0.39 | Feas 0.13 1.00 | Pen 2.98 0.10
It  15500  15442 | T(s) 6.04 | Feas 25 971.58 979.51 | Inf 40 970.48 974.61 | Div 0.49 0.38 | Feas 0.16 1.00 | Pen 2.59 0.10
It  16000  15942 | T(s) 6.23 | Feas 42 971.58 975.81 | Inf 53 972.04 974.56 | Div 0.36 0.28 | Feas 0.15 1.00 | Pen 3.17 0.10
It  16500  16442 | T(s) 6.42 | Feas 47 971.58 974.85 | Inf 39 971.24 974.35 | Div 0.28 0.36 | Feas 0.36 1.00 | Pen 2.80 0.10
It  17000  16942 | T(s) 6.61 | Feas 37 971.58 975.85 | Inf 49 971.40 974.74 | Div 0.38 0.36 | Feas 0.40 1.00 | Pen 2.86 0.10
It  17500  17442 | T(s) 6.80 | Feas 65 971.58 975.71 | Inf 29 970.04 975.97 | Div 0.32 0.45 | Feas 0.16 1.00 | Pen 2.48 0.10
It  18000  17942 | T(s) 7.00 | Feas 62 971.58 975.78 | Inf 55 970.24 972.60 | Div 0.32 0.28 | Feas 0.19 1.00 | Pen 2.53 0.10
It  18500  18442 | T(s) 7.20 | Feas 53 971.58 975.13 | Inf 35 970.64 974.66 | Div 0.32 0.40 | Feas 0.35 1.00 | Pen 2.63 0.10
It  19000  18942 | T(s) 7.38 | Feas 30 971.58 976.96 | Inf 57 970.85 973.73 | Div 0.42 0.30 | Feas 0.19 1.00 | Pen 2.68 0.10
It  19500  19442 | T(s) 7.57 | Feas 28 971.58 977.69 | Inf 44 971.04 974.10 | Div 0.45 0.36 | Feas 0.26 1.00 | Pen 2.74 0.10
It  20000  19942 | T(s) 7.76 | Feas 47 971.58 976.12 | Inf 52 969.61 972.94 | Div 0.36 0.33 | Feas 0.30 1.00 | Pen 2.37 0.10
----- GENETIC ALGORITHM FINISHED AFTER 20060 ITERATIONS. TIME SPENT: 7.78102
----- WRITING BEST SOLUTION IN : baseline_results/cvrp_hgs/Vrp-Set-P-n60/Vrp-Set-P-n60-hgs/1.hgs1.tour
