experiment/data/hgs-res/Vrp-Set-P-n60/Vrp-Set-P-n60-hgs/1.hgs1.tour
Route #1: 23 56 49 24 3
Route #2: 51 16 33 6
Route #3: 22 42 41 43 1
Route #4: 2 28 30
Route #5: 48 47 36 21
Route #6: 29 45 4
Route #7: 57 15 20 37 5
Route #8: 8 54 13 27 52
Route #9: 34 46 7 26
Route #10: 19 59 14 35
Route #11: 58 11 53
Route #12: 38 10 31
Route #13: 39 9 32
Route #14: 12 40 17
Route #15: 44 50 18 55 25
Cost 971.582
